p edge 81 141
e 1 2
e 1 3
e 2 4
e 2 5
e 3 5
e 3 6
e 4 7
e 4 8
e 5 8
e 5 9
e 6 9
e 6 28
e 7 10
e 7 11
e 8 11
e 8 12
e 9 12
e 9 29
e 10 13
e 10 14
e 11 15
e 12 15
e 12 30
e 13 16
e 13 17
e 14 17
e 14 18
e 15 18
e 15 31
e 16 19
e 16 20
e 17 20
e 17 21
e 18 21
e 18 32
e 19 22
e 19 23
e 20 23
e 20 24
e 21 24
e 21 33
e 22 25
e 23 25
e 23 26
e 24 26
e 24 34
e 25 27
e 26 27
e 26 35
e 27 36
e 28 29
e 28 37
e 29 30
e 29 38
e 30 31
e 30 39
e 31 32
e 31 40
e 32 33
e 32 41
e 33 34
e 33 42
e 34 35
e 34 43
e 35 36
e 35 44
e 36 45
e 37 38
e 37 46
e 38 39
e 38 47
e 39 40
e 39 48
e 40 41
e 40 49
e 41 42
e 41 50
e 42 43
e 42 51
e 43 44
e 43 52
e 44 45
e 44 53
e 45 54
e 46 47
e 46 55
e 47 48
e 47 56
e 48 57
e 49 50
e 49 58
e 50 51
e 50 59
e 51 52
e 51 60
e 52 53
e 52 61
e 53 54
e 53 62
e 54 63
e 55 56
e 55 64
e 56 57
e 56 65
e 57 58
e 57 66
e 58 59
e 58 67
e 59 60
e 59 68
e 60 69
e 61 62
e 61 70
e 62 63
e 62 71
e 63 72
e 64 65
e 64 73
e 65 66
e 65 74
e 66 67
e 66 75
e 67 68
e 67 76
e 68 69
e 68 77
e 69 70
e 69 78
e 70 71
e 70 79
e 71 72
e 71 80
e 72 81
e 73 74
e 74 75
e 75 76
e 76 77
e 77 78
e 78 79
e 79 80
e 80 81
l 5
